c A SAT instance generated from a 3-CNF formula that had 24 clauses and 12 variables
p cnf 12 24
-10 7 2 0
9 11 7 0
9 -3 -11 0
-11 1 10 0
8 2 10 0
3 -8 -1 0
-10 12 -1 0
9 3 10 0
-7 -3 -2 0
11 -3 2 0
1 -5 2 0
-1 -4 -5 0
-2 1 11 0
-1 2 -5 0
3 7 -11 0
-4 1 -3 0
-4 -6 5 0
-4 12 2 0
9 8 6 0
12 -2 8 0
8 4 7 0
-1 -4 10 0
-8 9 -4 0
1 -9 10 0
